c This is QMaxSAT 2017 based on 14.07
c This is Glucose 3.0
c This is MiniSat 2.2.0
c WARNING: for repeatability, setting FPU to use double precision
c card = mrwto, comp = 0, pmodel = 0, narr = 24, mct = 152, verb = 0
cr firstCPXsol 0 0 0
c top = 158709225
c |  Number of variables:    61250                                            |
c |  Number of clauses:      9762953                                          |
c |  Weight of hard clauses: 158709225                                        |
c |  Number of soft clauses: 717552                                           |
c |  Number of unit soft clauses: 0                                           |
c |  Maximum Cardinality (by unit): 5318258928   (0           )               |
c last restart ## conflicts  :  9 14249 
o 480165 | cpuTime 1.90157 s
c Sum of weights = 221594122
c A number of soft clauses remained = 29898
c MRWTO encoding for Pseudo-Boolean Constraints
c sizeMax=65536
c No.0 Divisor=14	generated by pow1
c No.1 Divisor=14	generated by pow1
c No.2 Divisor=14	generated by pow1
c No.3 Divisor=14	generated by pow1
c No.4 Divisor=14	generated by pow1
c p0= 14	p1= 14	p2= 14	p3= 14	p4= 14	
c number of digits = 6
c linkingVar[0].size = 14, linkingVar[1].size = 14, linkingVar[2].size = 14, linkingVar[3].size = 14, linkingVar[4].size = 13, linkingVar[5].size = 1, 
c Pseudo-Boolean Constraints: 1224247 variables and 15813530 clauses
c Sum of weights = 221594122
c A number of soft clauses remained = 29898
c MRWTO encoding for Pseudo-Boolean Constraints
c sizeMax=65536
c No.0 Divisor=14	generated by pow1
c No.1 Divisor=14	generated by pow1
c No.2 Divisor=14	generated by pow1
c No.3 Divisor=14	generated by pow1
c No.4 Divisor=14	generated by pow1
c p0= 14	p1= 14	p2= 14	p3= 14	p4= 14	
c number of digits = 6
c linkingVar[0].size = 14, linkingVar[1].size = 14, linkingVar[2].size = 14, linkingVar[3].size = 14, linkingVar[4].size = 13, linkingVar[5].size = 1, 
c Pseudo-Boolean Constraints: 1224247 variables and 15813530 clauses
c Sum of weights = 221594122
c A number of soft clauses remained = 29898
c MRWTO encoding for Pseudo-Boolean Constraints
c sizeMax=65536
c No.0 Divisor=14	generated by pow1
c No.1 Divisor=14	generated by pow1
c No.2 Divisor=14	generated by pow1
c No.3 Divisor=14	generated by pow1
c No.4 Divisor=14	generated by pow1
c p0= 14	p1= 14	p2= 14	p3= 14	p4= 14	
c number of digits = 6
c linkingVar[0].size = 14, linkingVar[1].size = 14, linkingVar[2].size = 14, linkingVar[3].size = 14, linkingVar[4].size = 13, linkingVar[5].size = 1, 
c Pseudo-Boolean Constraints: 1224247 variables and 15813530 clauses
c Sum of weights = 221594122
c A number of soft clauses remained = 29898
c MRWTO encoding for Pseudo-Boolean Constraints
c sizeMax=65536
c No.0 Divisor=14	generated by pow1
c No.1 Divisor=14	generated by pow1
c No.2 Divisor=14	generated by pow1
c No.3 Divisor=14	generated by pow1
c No.4 Divisor=14	generated by pow1
c p0= 14	p1= 14	p2= 14	p3= 14	p4= 14	
c number of digits = 6
c linkingVar[0].size = 14, linkingVar[1].size = 14, linkingVar[2].size = 14, linkingVar[3].size = 14, linkingVar[4].size = 13, linkingVar[5].size = 1, 
c Pseudo-Boolean Constraints: 1224247 variables and 15813530 clauses
c Sum of weights = 221594122
c A number of soft clauses remained = 29898
c MRWTO encoding for Pseudo-Boolean Constraints
c sizeMax=65536
c No.0 Divisor=14	generated by pow1
c No.1 Divisor=14	generated by pow1
c No.2 Divisor=14	generated by pow1
c No.3 Divisor=14	generated by pow1
c No.4 Divisor=14	generated by pow1
c p0= 14	p1= 14	p2= 14	p3= 14	p4= 14	
c number of digits = 6
c linkingVar[0].size = 14, linkingVar[1].size = 14, linkingVar[2].size = 14, linkingVar[3].size = 14, linkingVar[4].size = 13, linkingVar[5].size = 1, 
c Pseudo-Boolean Constraints: 1224247 variables and 15813530 clauses
c Sum of weights = 221594122
c A number of soft clauses remained = 29898
c MRWTO encoding for Pseudo-Boolean Constraints
c sizeMax=65536
c No.0 Divisor=14	generated by pow1
c No.1 Divisor=14	generated by pow1
c No.2 Divisor=14	generated by pow1
c No.3 Divisor=14	generated by pow1
c No.4 Divisor=14	generated by pow1
c p0= 14	p1= 14	p2= 14	p3= 14	p4= 14	
c number of digits = 6
c linkingVar[0].size = 14, linkingVar[1].size = 14, linkingVar[2].size = 14, linkingVar[3].size = 14, linkingVar[4].size = 13, linkingVar[5].size = 1, 
c Pseudo-Boolean Constraints: 1224247 variables and 15813530 clauses
c Sum of weights = 221594122
c A number of soft clauses remained = 29898
c MRWTO encoding for Pseudo-Boolean Constraints
c sizeMax=65536
c No.0 Divisor=14	generated by pow1
c No.1 Divisor=14	generated by pow1
c No.2 Divisor=14	generated by pow1
c No.3 Divisor=14	generated by pow1
c No.4 Divisor=14	generated by pow1
c p0= 14	p1= 14	p2= 14	p3= 14	p4= 14	
c number of digits = 6
c linkingVar[0].size = 14, linkingVar[1].size = 14, linkingVar[2].size = 14, linkingVar[3].size = 14, linkingVar[4].size = 13, linkingVar[5].size = 1, 
c Pseudo-Boolean Constraints: 1224247 variables and 15813530 clauses
c Sum of weights = 221594122
c A number of soft clauses remained = 29898
c MRWTO encoding for Pseudo-Boolean Constraints
c sizeMax=65536
c No.0 Divisor=14	generated by pow1
c No.1 Divisor=14	generated by pow1
c No.2 Divisor=14	generated by pow1
c No.3 Divisor=14	generated by pow1
c No.4 Divisor=14	generated by pow1
c p0= 14	p1= 14	p2= 14	p3= 14	p4= 14	
c number of digits = 6
c linkingVar[0].size = 14, linkingVar[1].size = 14, linkingVar[2].size = 14, linkingVar[3].size = 14, linkingVar[4].size = 13, linkingVar[5].size = 1, 
c Pseudo-Boolean Constraints: 1224247 variables and 15813530 clauses
c Sum of weights = 221594122
c A number of soft clauses remained = 29898
c MRWTO encoding for Pseudo-Boolean Constraints
c sizeMax=65536
c No.0 Divisor=14	generated by pow1
c No.1 Divisor=14	generated by pow1
c No.2 Divisor=14	generated by pow1
c No.3 Divisor=14	generated by pow1
c No.4 Divisor=14	generated by pow1
c p0= 14	p1= 14	p2= 14	p3= 14	p4= 14	
c number of digits = 6
c linkingVar[0].size = 14, linkingVar[1].size = 14, linkingVar[2].size = 14, linkingVar[3].size = 14, linkingVar[4].size = 13, linkingVar[5].size = 1, 
c Pseudo-Boolean Constraints: 1224247 variables and 15813530 clauses
c Sum of weights = 221594122
c A number of soft clauses remained = 29898
c MRWTO encoding for Pseudo-Boolean Constraints
c sizeMax=65536
c No.0 Divisor=14	generated by pow1
c No.1 Divisor=14	generated by pow1
c No.2 Divisor=14	generated by pow1
c No.3 Divisor=14	generated by pow1
c No.4 Divisor=14	generated by pow1
c p0= 14	p1= 14	p2= 14	p3= 14	p4= 14	
c number of digits = 6
c linkingVar[0].size = 14, linkingVar[1].size = 14, linkingVar[2].size = 14, linkingVar[3].size = 14, linkingVar[4].size = 13, linkingVar[5].size = 1, 
c Pseudo-Boolean Constraints: 1224247 variables and 15813530 clauses
c Sum of weights = 221594122
c A number of soft clauses remained = 29898
c MRWTO encoding for Pseudo-Boolean Constraints
c sizeMax=65536
c No.0 Divisor=14	generated by pow1
c No.1 Divisor=14	generated by pow1
c No.2 Divisor=14	generated by pow1
c No.3 Divisor=14	generated by pow1
c No.4 Divisor=14	generated by pow1
c p0= 14	p1= 14	p2= 14	p3= 14	p4= 14	
c number of digits = 6
c linkingVar[0].size = 14, linkingVar[1].size = 14, linkingVar[2].size = 14, linkingVar[3].size = 14, linkingVar[4].size = 13, linkingVar[5].size = 1, 
c Pseudo-Boolean Constraints: 1224247 variables and 15813530 clauses
c Sum of weights = 221594122
c A number of soft clauses remained = 29898
c MRWTO encoding for Pseudo-Boolean Constraints
c sizeMax=65536
c No.0 Divisor=14	generated by pow1
c No.1 Divisor=14	generated by pow1
c No.2 Divisor=14	generated by pow1
c No.3 Divisor=14	generated by pow1
c No.4 Divisor=14	generated by pow1
c p0= 14	p1= 14	p2= 14	p3= 14	p4= 14	
c number of digits = 6
c linkingVar[0].size = 14, linkingVar[1].size = 14, linkingVar[2].size = 14, linkingVar[3].size = 14, linkingVar[4].size = 13, linkingVar[5].size = 1, 
c Pseudo-Boolean Constraints: 1224247 variables and 15813530 clauses
c Sum of weights = 221594122
c A number of soft clauses remained = 29898
c MRWTO encoding for Pseudo-Boolean Constraints
c sizeMax=65536
c No.0 Divisor=14	generated by pow1
c No.1 Divisor=14	generated by pow1
c No.2 Divisor=14	generated by pow1
c No.3 Divisor=14	generated by pow1
c No.4 Divisor=14	generated by pow1
c p0= 14	p1= 14	p2= 14	p3= 14	p4= 14	
c number of digits = 6
c linkingVar[0].size = 14, linkingVar[1].size = 14, linkingVar[2].size = 14, linkingVar[3].size = 14, linkingVar[4].size = 13, linkingVar[5].size = 1, 
c Pseudo-Boolean Constraints: 1224247 variables and 15813530 clauses
c Sum of weights = 221594122
c A number of soft clauses remained = 29898
c MRWTO encoding for Pseudo-Boolean Constraints
c sizeMax=65536
c No.0 Divisor=14	generated by pow1
c No.1 Divisor=14	generated by pow1
c No.2 Divisor=14	generated by pow1
c No.3 Divisor=14	generated by pow1
c No.4 Divisor=14	generated by pow1
c p0= 14	p1= 14	p2= 14	p3= 14	p4= 14	
c number of digits = 6
c linkingVar[0].size = 14, linkingVar[1].size = 14, linkingVar[2].size = 14, linkingVar[3].size = 14, linkingVar[4].size = 13, linkingVar[5].size = 1, 
c Pseudo-Boolean Constraints: 1224247 variables and 15813530 clauses
c Sum of weights = 221594122
c A number of soft clauses remained = 29898
c MRWTO encoding for Pseudo-Boolean Constraints
c sizeMax=65536
c No.0 Divisor=14	generated by pow1
c No.1 Divisor=14	generated by pow1
c No.2 Divisor=14	generated by pow1
c No.3 Divisor=14	generated by pow1
c No.4 Divisor=14	generated by pow1
c p0= 14	p1= 14	p2= 14	p3= 14	p4= 14	
c number of digits = 6
c linkingVar[0].size = 14, linkingVar[1].size = 14, linkingVar[2].size = 14, linkingVar[3].size = 14, linkingVar[4].size = 13, linkingVar[5].size = 1, 
c Pseudo-Boolean Constraints: 1224247 variables and 15813530 clauses
c Sum of weights = 221594122
c A number of soft clauses remained = 29898
c MRWTO encoding for Pseudo-Boolean Constraints
c sizeMax=65536
c No.0 Divisor=14	generated by pow1
c No.1 Divisor=14	generated by pow1
c No.2 Divisor=14	generated by pow1
c No.3 Divisor=14	generated by pow1
c No.4 Divisor=14	generated by pow1
c p0= 14	p1= 14	p2= 14	p3= 14	p4= 14	
c number of digits = 6
c linkingVar[0].size = 14, linkingVar[1].size = 14, linkingVar[2].size = 14, linkingVar[3].size = 14, linkingVar[4].size = 13, linkingVar[5].size = 1, 
c Pseudo-Boolean Constraints: 1224247 variables and 15813530 clauses
c Sum of weights = 221594122
c A number of soft clauses remained = 29898
c MRWTO encoding for Pseudo-Boolean Constraints
c sizeMax=65536
c No.0 Divisor=14	generated by pow1
c No.1 Divisor=14	generated by pow1
c No.2 Divisor=14	generated by pow1
c No.3 Divisor=14	generated by pow1
c No.4 Divisor=14	generated by pow1
c p0= 14	p1= 14	p2= 14	p3= 14	p4= 14	
c number of digits = 6
c linkingVar[0].size = 14, linkingVar[1].size = 14, linkingVar[2].size = 14, linkingVar[3].size = 14, linkingVar[4].size = 13, linkingVar[5].size = 1, 
c Pseudo-Boolean Constraints: 1224247 variables and 15813530 clauses
c Sum of weights = 221594122
c A number of soft clauses remained = 29898
c MRWTO encoding for Pseudo-Boolean Constraints
c sizeMax=65536
c No.0 Divisor=14	generated by pow1
c No.1 Divisor=14	generated by pow1
c No.2 Divisor=14	generated by pow1
c No.3 Divisor=14	generated by pow1
c No.4 Divisor=14	generated by pow1
c p0= 14	p1= 14	p2= 14	p3= 14	p4= 14	
c number of digits = 6
c linkingVar[0].size = 14, linkingVar[1].size = 14, linkingVar[2].size = 14, linkingVar[3].size = 14, linkingVar[4].size = 13, linkingVar[5].size = 1, 
c Pseudo-Boolean Constraints: 1224247 variables and 15813530 clauses
c Sum of weights = 221594122
c A number of soft clauses remained = 29898
c MRWTO encoding for Pseudo-Boolean Constraints
c sizeMax=65536
c No.0 Divisor=14	generated by pow1
c No.1 Divisor=14	generated by pow1
c No.2 Divisor=14	generated by pow1
c No.3 Divisor=14	generated by pow1
c No.4 Divisor=14	generated by pow1
c p0= 14	p1= 14	p2= 14	p3= 14	p4= 14	
c number of digits = 6
c linkingVar[0].size = 14, linkingVar[1].size = 14, linkingVar[2].size = 14, linkingVar[3].size = 14, linkingVar[4].size = 13, linkingVar[5].size = 1, 
c Pseudo-Boolean Constraints: 1224247 variables and 15813530 clauses
c Sum of weights = 221594122
c A number of soft clauses remained = 29898
c MRWTO encoding for Pseudo-Boolean Constraints
c sizeMax=65536
c No.0 Divisor=14	generated by pow1
c No.1 Divisor=14	generated by pow1
c No.2 Divisor=14	generated by pow1
c No.3 Divisor=14	generated by pow1
c No.4 Divisor=14	generated by pow1
c p0= 14	p1= 14	p2= 14	p3= 14	p4= 14	
c number of digits = 6
c linkingVar[0].size = 14, linkingVar[1].size = 14, linkingVar[2].size = 14, linkingVar[3].size = 14, linkingVar[4].size = 13, linkingVar[5].size = 1, 
c Pseudo-Boolean Constraints: 1224247 variables and 15813530 clauses
c Sum of weights = 221594122
c A number of soft clauses remained = 29898
c MRWTO encoding for Pseudo-Boolean Constraints
c sizeMax=65536
c No.0 Divisor=14	generated by pow1
c No.1 Divisor=14	generated by pow1
c No.2 Divisor=14	generated by pow1
c No.3 Divisor=14	generated by pow1
c No.4 Divisor=14	generated by pow1
c p0= 14	p1= 14	p2= 14	p3= 14	p4= 14	
c number of digits = 6
c linkingVar[0].size = 14, linkingVar[1].size = 14, linkingVar[2].size = 14, linkingVar[3].size = 14, linkingVar[4].size = 13, linkingVar[5].size = 1, 
c Pseudo-Boolean Constraints: 1224247 variables and 15813530 clauses
c Sum of weights = 221594122
c A number of soft clauses remained = 29898
c MRWTO encoding for Pseudo-Boolean Constraints
c sizeMax=65536
c No.0 Divisor=14	generated by pow1
c No.1 Divisor=14	generated by pow1
c No.2 Divisor=14	generated by pow1
c No.3 Divisor=14	generated by pow1
c No.4 Divisor=14	generated by pow1
c p0= 14	p1= 14	p2= 14	p3= 14	p4= 14	
c number of digits = 6
c linkingVar[0].size = 14, linkingVar[1].size = 14, linkingVar[2].size = 14, linkingVar[3].size = 14, linkingVar[4].size = 13, linkingVar[5].size = 1, 
c Pseudo-Boolean Constraints: 1224247 variables and 15813530 clauses
c Sum of weights = 221594122
c A number of soft clauses remained = 29898
c MRWTO encoding for Pseudo-Boolean Constraints
c sizeMax=65536
c No.0 Divisor=14	generated by pow1
c No.1 Divisor=14	generated by pow1
c No.2 Divisor=14	generated by pow1
c No.3 Divisor=14	generated by pow1
c No.4 Divisor=14	generated by pow1
c p0= 14	p1= 14	p2= 14	p3= 14	p4= 14	
c number of digits = 6
c linkingVar[0].size = 14, linkingVar[1].size = 14, linkingVar[2].size = 14, linkingVar[3].size = 14, linkingVar[4].size = 13, linkingVar[5].size = 1, 
c Pseudo-Boolean Constraints: 1224247 variables and 15813530 clauses
c Sum of weights = 221594122
c A number of soft clauses remained = 29898
c MRWTO encoding for Pseudo-Boolean Constraints
c sizeMax=65536
c No.0 Divisor=14	generated by pow1
c No.1 Divisor=14	generated by pow1
c No.2 Divisor=14	generated by pow1
c No.3 Divisor=14	generated by pow1
c No.4 Divisor=14	generated by pow1
c p0= 14	p1= 14	p2= 14	p3= 14	p4= 14	
c number of digits = 6
c linkingVar[0].size = 14, linkingVar[1].size = 14, linkingVar[2].size = 14, linkingVar[3].size = 14, linkingVar[4].size = 13, linkingVar[5].size = 1, 
c Pseudo-Boolean Constraints: 1224247 variables and 15813530 clauses
c last restart ## conflicts  :  485 751001 
o 195870 | cpuTime 717.513 s
c last restart ## conflicts  :  817 781338 
o 182276 | cpuTime 1931.25 s
c last restart ## conflicts  :  564 450761 
o 146396 | cpuTime 2511.52 s
c last restart ## conflicts  :  598 254886 
o 129144 | cpuTime 2944.5 s
s UNKNOWN
c Search is stopped by a limit (maybe time-limit)
cr positiVarArr: [ | 151(1->128) | 314(1->116) | 468(1->95) | 565(1->17) | 847(1->124) | 960(1->62) | 1110(1->37) | 1357(1->109) | 1455(1->32) | 1727(1->129) | 1836(1->63) | 1984(1->36) | 2142(1->19) | 2443(1->145) | 2516(1->43) | 2746(1->98) | 2937(1->114) | 3039(1->41) | 3291(1->118) | 3483(1->135) | 3664(1->141) | 3763(1->65) | 3882(1->9) | 4104(1->56) | 4372(2->149) | 4545(3->147) | 4676(4->103) | 4730(5->1) | 4915(6->1) | 5119(7->21) | 5286(8->13) | 5444(9->1) | 5620(10->1) | 5806(11->8) | 6054(12->81) | 6164(13->16) | 6467(14->144) | 6523(15->25) | 6668(16->1) | 6837(17->1) | 7155(18->132) | 7185(19->1) | 7361(20->1) | 7528(21->1) | 7762(22->39) | 7920(23->22) | 8099(24->26) | 8234(25->1) | 8402(26->1) | 8724(27->126) | 8802(28->29) | 8978(29->30) | 9273(30->150) | 9380(31->82) | 9451(32->1) | 9649(33->1) | 9817(34->1) | 10076(35->78) | 10207(36->34) | 10350(37->2) | 10551(38->28) | 10708(39->10) | 10897(40->24) | 11171(41->123) | 11309(42->86) | 11478(43->80) | 11693(44->120) | 11801(45->53) | 11930(46->7) | 12194(47->96) | 12278(48->5) | 12565(49->117) | 12716(50->93) | 12812(51->14) | 13045(52->72) | 13245(53->97) | 13350(54->27) | 13504(55->6) | 13774(56->101) | 13961(57->113) | 14148(58->125) | 14238(59->40) | 14457(60->84) | 14612(61->64) | 14773(62->50) | 14968(63->70) | 15108(64->35) | 15307(65->59) | 15513(66->90) | 15644(67->46) | 15852(68->79) | 16025(69->77) | 16104(70->1) | 16347(71->49) | 16560(72->87) | 16742(73->94) | 16816(74->1) | 16997(75->1) | 17239(76->66) | 17423(77->75) | 17660(78->137) | 17753(79->55) | 17975(80->102) | 18086(81->38) | 18354(82->131) | 18398(83->1) | 18615(84->42) | 18821(85->73) | 19022(86->99) | 19116(87->18) | 19378(88->105) | 19588(89->140) | 19692(90->69) | 19898(91->100) | 19958(92->1) | 20139(93->1) | 20397(94->74) | 20545(95->47) | 20688(96->15) | 20952(97->104) | 21083(98->60) | 21289(99->91) | 21430(100->57) | 21616(101->68) | 21811(102->88) | 21974(103->76) | 22179(104->106) | 22293(105->45) | 22535(106->112) | 22681(107->83) | 22785(108->12) | 22959(109->11) | 23231(110->108) | 23329(111->31) | 23463(112->1) | 23740(113->92) | 23843(114->20) | 24137(115->139) | 24288(116->115) | 24475(117->127) | 24661(118->138) | 24749(119->51) | 24994(120->121) | 25100(121->52) | 25267(122->44) | 25487(123->89) | 25725(124->152) | 25870(125->122) | 25921(126->1) | 26228(127->130) | 26424(128->151) | 26584(129->136) | 26627(130->4) | 26905(131->107) | 26976(132->3) | 27290(133->142) | 27394(134->71) | 27641(135->143) | 27792(136->119) | 27958(137->110) | 28169(138->146) | 28259(139->61) | 28506(140->133) | 28602(141->54) | 28871(142->148) | 28983(143->85) | 29184(144->111) | 29382(145->134) | 29471(146->48) | 29631(147->33) | 29796(148->23) | 29932(149->1) | 30106(150->1) | 30356(151->58) | 30540(152->67) | ]
cr the 1-th chain: [ 1->128->151->58->125->122->44->120->121->52->72->87->18->132->3->147->33->1 ] (#non-depot=16) {#cumul.=17}
cr the 2-th chain: [ 1->116->115->139->61->64->35->78->137->110->108->12->81->38->28->29->30->150->1 ] (#non-depot=17) {#cumul.=34}
cr the 3-th chain: [ 1->95->47->96->15->25->1 ] (#non-depot=5) {#cumul.=39}
cr the 4-th chain: [ 1->17->1 ] (#non-depot=1) {#cumul.=40}
cr the 5-th chain: [ 1->124->152->67->46->7->21->1 ] (#non-depot=6) {#cumul.=46}
cr the 6-th chain: [ 1->62->50->93->1 ] (#non-depot=3) {#cumul.=49}
cr the 7-th chain: [ 1->37->2->149->1 ] (#non-depot=3) {#cumul.=52}
cr the 8-th chain: [ 1->109->11->8->13->16->1 ] (#non-depot=5) {#cumul.=57}
cr the 9-th chain: [ 1->32->1 ] (#non-depot=1) {#cumul.=58}
cr the 10-th chain: [ 1->129->136->119->51->14->144->111->31->82->131->107->83->1 ] (#non-depot=12) {#cumul.=70}
cr the 11-th chain: [ 1->63->70->1 ] (#non-depot=2) {#cumul.=72}
cr the 12-th chain: [ 1->36->34->1 ] (#non-depot=2) {#cumul.=74}
cr the 13-th chain: [ 1->19->1 ] (#non-depot=1) {#cumul.=75}
cr the 14-th chain: [ 1->145->134->71->49->117->127->130->4->103->76->66->90->69->77->75->1 ] (#non-depot=15) {#cumul.=90}
cr the 15-th chain: [ 1->43->80->102->88->105->45->53->97->104->106->112->1 ] (#non-depot=11) {#cumul.=101}
cr the 16-th chain: [ 1->98->60->84->42->86->99->91->100->57->113->92->1 ] (#non-depot=11) {#cumul.=112}
cr the 17-th chain: [ 1->114->20->1 ] (#non-depot=2) {#cumul.=114}
cr the 18-th chain: [ 1->41->123->89->140->133->142->148->23->22->39->10->1 ] (#non-depot=11) {#cumul.=125}
cr the 19-th chain: [ 1->118->138->146->48->5->1 ] (#non-depot=5) {#cumul.=130}
cr the 20-th chain: [ 1->135->143->85->73->94->74->1 ] (#non-depot=6) {#cumul.=136}
cr the 21-th chain: [ 1->141->54->27->126->1 ] (#non-depot=4) {#cumul.=140}
cr the 22-th chain: [ 1->65->59->40->24->26->1 ] (#non-depot=5) {#cumul.=145}
cr the 23-th chain: [ 1->9->1 ] (#non-depot=1) {#cumul.=146}
cr the 24-th chain: [ 1->56->101->68->79->55->6->1 ] (#non-depot=6) {#cumul.=152}
c Latest Answer = 0 by 5 loops
c restarts              : 863
c conflicts             : 165185         (46 /sec)
c decisions             : 138176830      (0.00 % random) (38333 /sec)
c propagations          : 23097909903    (6407815 /sec)
c conflict literals     : 17233424       (4.73 % deleted)
c Memory used           : 24184.00 MB
c CPU time              : 3604.65 s
